60

 0   0   1   2   3   3   3   4   4   2   2   3   4   6   6   3   3   2   3   3   4   4   4   4   5   5   4   3   4   4   5   5   7   7   7   7   8   5   4   4   5   5   6   7   7   8   9   9   9   6   6   6   8   9  10   7   6   6   9  11  
 0   0   1   2   3   3   3   4   4   2   2   3   4   6   6   3   3   2   3   3   4   4   4   4   5   5   4   3   4   4   5   5   7   7   7   7   8   5   4   4   5   5   6   7   7   8   9   9   9   6   6   6   8   9  10   7   6   6   9  11  
 1   1   0   1   2   2   2   3   3   3   1   2   3   5   5   4   4   3   2   2   3   3   3   3   4   4   5   4   3   3   4   4   6   6   6   6   7   6   5   5   4   4   5   6   6   7   8   8   8   7   7   5   7   8   9   8   7   7   8  10  
 2   2   1   0   1   1   1   2   2   4   2   1   2   4   4   5   5   4   3   3   2   2   2   2   3   3   6   5   4   4   3   3   5   5   5   5   6   7   6   6   5   5   4   5   5   6   7   7   7   8   8   6   6   7   8   9   8   8   7   9  
 3   3   2   1   0   0   0   1   1   5   3   2   1   3   3   6   6   5   4   4   3   3   3   3   2   2   7   6   5   5   4   4   4   4   4   4   5   8   7   7   6   6   5   4   4   5   6   6   6   9   9   7   5   6   7  10   9   9   6   8  
 3   3   2   1   0   0   0   1   1   5   3   2   1   3   3   6   6   5   4   4   3   3   3   3   2   2   7   6   5   5   4   4   4   4   4   4   5   8   7   7   6   6   5   4   4   5   6   6   6   9   9   7   5   6   7  10   9   9   6   8  
 3   3   2   1   0   0   0   1   1   5   3   2   1   3   3   6   6   5   4   4   3   3   3   3   2   2   7   6   5   5   4   4   4   4   4   4   5   8   7   7   6   6   5   4   4   5   6   6   6   9   9   7   5   6   7  10   9   9   6   8  
 4   4   3   2   1   1   1   0   0   6   4   3   2   2   2   7   7   6   5   5   4   4   4   4   3   3   8   7   6   6   5   5   3   3   3   3   4   9   8   8   7   7   6   5   5   4   5   5   5  10  10   8   6   5   6  11  10  10   7   7  
 4   4   3   2   1   1   1   0   0   6   4   3   2   2   2   7   7   6   5   5   4   4   4   4   3   3   8   7   6   6   5   5   3   3   3   3   4   9   8   8   7   7   6   5   5   4   5   5   5  10  10   8   6   5   6  11  10  10   7   7  
 2   2   3   4   5   5   5   6   6   0   2   3   4   6   6   1   1   2   3   3   4   4   4   4   5   5   2   3   4   4   5   5   7   7   7   7   8   3   4   4   5   5   6   7   7   8   9   9   9   4   4   6   8   9  10   5   6   6   9  11  
 2   2   1   2   3   3   3   4   4   2   0   1   2   4   4   3   3   2   1   1   2   2   2   2   3   3   4   3   2   2   3   3   5   5   5   5   6   5   4   4   3   3   4   5   5   6   7   7   7   6   6   4   6   7   8   7   6   6   7   9  
 3   3   2   1   2   2   2   3   3   3   1   0   1   3   3   4   4   3   2   2   1   1   1   1   2   2   5   4   3   3   2   2   4   4   4   4   5   6   5   5   4   4   3   4   4   5   6   6   6   7   7   5   5   6   7   8   7   7   6   8  
 4   4   3   2   1   1   1   2   2   4   2   1   0   2   2   5   5   4   3   3   2   2   2   2   1   1   6   5   4   4   3   3   3   3   3   3   4   7   6   6   5   5   4   3   3   4   5   5   5   8   8   6   4   5   6   9   8   8   5   7  
 6   6   5   4   3   3   3   2   2   6   4   3   2   0   0   7   7   6   5   5   4   4   4   4   3   3   8   7   6   6   5   5   3   3   3   3   2   9   8   8   7   7   6   5   5   4   3   3   3  10  10   8   6   5   4  11  10  10   7   5  
 6   6   5   4   3   3   3   2   2   6   4   3   2   0   0   7   7   6   5   5   4   4   4   4   3   3   8   7   6   6   5   5   3   3   3   3   2   9   8   8   7   7   6   5   5   4   3   3   3  10  10   8   6   5   4  11  10  10   7   5  
 3   3   4   5   6   6   6   7   7   1   3   4   5   7   7   0   0   1   2   2   3   3   3   3   4   4   1   2   3   3   4   4   6   6   6   6   7   2   3   3   4   4   5   6   6   7   8   8   8   3   3   5   7   8   9   4   5   5   8  10  
 3   3   4   5   6   6   6   7   7   1   3   4   5   7   7   0   0   1   2   2   3   3   3   3   4   4   1   2   3   3   4   4   6   6   6   6   7   2   3   3   4   4   5   6   6   7   8   8   8   3   3   5   7   8   9   4   5   5   8  10  
 2   2   3   4   5   5   5   6   6   2   2   3   4   6   6   1   1   0   1   1   2   2   2   2   3   3   2   1   2   2   3   3   5   5   5   5   6   3   2   2   3   3   4   5   5   6   7   7   7   4   4   4   6   7   8   5   4   4   7   9  
 3   3   2   3   4   4   4   5   5   3   1   2   3   5   5   2   2   1   0   0   1   1   1   1   2   2   3   2   1   1   2   2   4   4   4   4   5   4   3   3   2   2   3   4   4   5   6   6   6   5   5   3   5   6   7   6   5   5   6   8  
 3   3   2   3   4   4   4   5   5   3   1   2   3   5   5   2   2   1   0   0   1   1   1   1   2   2   3   2   1   1   2   2   4   4   4   4   5   4   3   3   2   2   3   4   4   5   6   6   6   5   5   3   5   6   7   6   5   5   6   8  
 4   4   3   2   3   3   3   4   4   4   2   1   2   4   4   3   3   2   1   1   0   0   0   0   1   1   4   3   2   2   1   1   3   3   3   3   4   5   4   4   3   3   2   3   3   4   5   5   5   6   6   4   4   5   6   7   6   6   5   7  
 4   4   3   2   3   3   3   4   4   4   2   1   2   4   4   3   3   2   1   1   0   0   0   0   1   1   4   3   2   2   1   1   3   3   3   3   4   5   4   4   3   3   2   3   3   4   5   5   5   6   6   4   4   5   6   7   6   6   5   7  
 4   4   3   2   3   3   3   4   4   4   2   1   2   4   4   3   3   2   1   1   0   0   0   0   1   1   4   3   2   2   1   1   3   3   3   3   4   5   4   4   3   3   2   3   3   4   5   5   5   6   6   4   4   5   6   7   6   6   5   7  
 4   4   3   2   3   3   3   4   4   4   2   1   2   4   4   3   3   2   1   1   0   0   0   0   1   1   4   3   2   2   1   1   3   3   3   3   4   5   4   4   3   3   2   3   3   4   5   5   5   6   6   4   4   5   6   7   6   6   5   7  
 5   5   4   3   2   2   2   3   3   5   3   2   1   3   3   4   4   3   2   2   1   1   1   1   0   0   5   4   3   3   2   2   2   2   2   2   3   6   5   5   4   4   3   2   2   3   4   4   4   7   7   5   3   4   5   8   7   7   4   6  
 5   5   4   3   2   2   2   3   3   5   3   2   1   3   3   4   4   3   2   2   1   1   1   1   0   0   5   4   3   3   2   2   2   2   2   2   3   6   5   5   4   4   3   2   2   3   4   4   4   7   7   5   3   4   5   8   7   7   4   6  
 4   4   5   6   7   7   7   8   8   2   4   5   6   8   8   1   1   2   3   3   4   4   4   4   5   5   0   1   2   2   3   3   5   5   5   5   6   1   2   2   3   3   4   5   5   6   7   7   7   2   2   4   6   7   8   3   4   4   7   9  
 3   3   4   5   6   6   6   7   7   3   3   4   5   7   7   2   2   1   2   2   3   3   3   3   4   4   1   0   1   1   2   2   4   4   4   4   5   2   1   1   2   2   3   4   4   5   6   6   6   3   3   3   5   6   7   4   3   3   6   8  
 4   4   3   4   5   5   5   6   6   4   2   3   4   6   6   3   3   2   1   1   2   2   2   2   3   3   2   1   0   0   1   1   3   3   3   3   4   3   2   2   1   1   2   3   3   4   5   5   5   4   4   2   4   5   6   5   4   4   5   7  
 4   4   3   4   5   5   5   6   6   4   2   3   4   6   6   3   3   2   1   1   2   2   2   2   3   3   2   1   0   0   1   1   3   3   3   3   4   3   2   2   1   1   2   3   3   4   5   5   5   4   4   2   4   5   6   5   4   4   5   7  
 5   5   4   3   4   4   4   5   5   5   3   2   3   5   5   4   4   3   2   2   1   1   1   1   2   2   3   2   1   1   0   0   2   2   2   2   3   4   3   3   2   2   1   2   2   3   4   4   4   5   5   3   3   4   5   6   5   5   4   6  
 5   5   4   3   4   4   4   5   5   5   3   2   3   5   5   4   4   3   2   2   1   1   1   1   2   2   3   2   1   1   0   0   2   2   2   2   3   4   3   3   2   2   1   2   2   3   4   4   4   5   5   3   3   4   5   6   5   5   4   6  
 7   7   6   5   4   4   4   3   3   7   5   4   3   3   3   6   6   5   4   4   3   3   3   3   2   2   5   4   3   3   2   2   0   0   0   0   1   6   5   5   4   4   3   2   2   1   2   2   2   7   7   5   3   2   3   8   7   7   4   4  
 7   7   6   5   4   4   4   3   3   7   5   4   3   3   3   6   6   5   4   4   3   3   3   3   2   2   5   4   3   3   2   2   0   0   0   0   1   6   5   5   4   4   3   2   2   1   2   2   2   7   7   5   3   2   3   8   7   7   4   4  
 7   7   6   5   4   4   4   3   3   7   5   4   3   3   3   6   6   5   4   4   3   3   3   3   2   2   5   4   3   3   2   2   0   0   0   0   1   6   5   5   4   4   3   2   2   1   2   2   2   7   7   5   3   2   3   8   7   7   4   4  
 7   7   6   5   4   4   4   3   3   7   5   4   3   3   3   6   6   5   4   4   3   3   3   3   2   2   5   4   3   3   2   2   0   0   0   0   1   6   5   5   4   4   3   2   2   1   2   2   2   7   7   5   3   2   3   8   7   7   4   4  
 8   8   7   6   5   5   5   4   4   8   6   5   4   2   2   7   7   6   5   5   4   4   4   4   3   3   6   5   4   4   3   3   1   1   1   1   0   7   6   6   5   5   4   3   3   2   1   1   1   8   8   6   4   3   2   9   8   8   5   3  
 5   5   6   7   8   8   8   9   9   3   5   6   7   9   9   2   2   3   4   4   5   5   5   5   6   6   1   2   3   3   4   4   6   6   6   6   7   0   1   1   2   2   3   4   4   5   6   6   6   1   1   3   5   6   7   2   3   3   6   8  
 4   4   5   6   7   7   7   8   8   4   4   5   6   8   8   3   3   2   3   3   4   4   4   4   5   5   2   1   2   2   3   3   5   5   5   5   6   1   0   0   1   1   2   3   3   4   5   5   5   2   2   2   4   5   6   3   2   2   5   7  
 4   4   5   6   7   7   7   8   8   4   4   5   6   8   8   3   3   2   3   3   4   4   4   4   5   5   2   1   2   2   3   3   5   5   5   5   6   1   0   0   1   1   2   3   3   4   5   5   5   2   2   2   4   5   6   3   2   2   5   7  
 5   5   4   5   6   6   6   7   7   5   3   4   5   7   7   4   4   3   2   2   3   3   3   3   4   4   3   2   1   1   2   2   4   4   4   4   5   2   1   1   0   0   1   2   2   3   4   4   4   3   3   1   3   4   5   4   3   3   4   6  
 5   5   4   5   6   6   6   7   7   5   3   4   5   7   7   4   4   3   2   2   3   3   3   3   4   4   3   2   1   1   2   2   4   4   4   4   5   2   1   1   0   0   1   2   2   3   4   4   4   3   3   1   3   4   5   4   3   3   4   6  
 6   6   5   4   5   5   5   6   6   6   4   3   4   6   6   5   5   4   3   3   2   2   2   2   3   3   4   3   2   2   1   1   3   3   3   3   4   3   2   2   1   1   0   1   1   2   3   3   3   4   4   2   2   3   4   5   4   4   3   5  
 7   7   6   5   4   4   4   5   5   7   5   4   3   5   5   6   6   5   4   4   3   3   3   3   2   2   5   4   3   3   2   2   2   2   2   2   3   4   3   3   2   2   1   0   0   1   2   2   2   5   5   3   1   2   3   6   5   5   2   4  
 7   7   6   5   4   4   4   5   5   7   5   4   3   5   5   6   6   5   4   4   3   3   3   3   2   2   5   4   3   3   2   2   2   2   2   2   3   4   3   3   2   2   1   0   0   1   2   2   2   5   5   3   1   2   3   6   5   5   2   4  
 8   8   7   6   5   5   5   4   4   8   6   5   4   4   4   7   7   6   5   5   4   4   4   4   3   3   6   5   4   4   3   3   1   1   1   1   2   5   4   4   3   3   2   1   1   0   1   1   1   6   6   4   2   1   2   7   6   6   3   3  
 9   9   8   7   6   6   6   5   5   9   7   6   5   3   3   8   8   7   6   6   5   5   5   5   4   4   7   6   5   5   4   4   2   2   2   2   1   6   5   5   4   4   3   2   2   1   0   0   0   7   7   5   3   2   1   8   7   7   4   2  
 9   9   8   7   6   6   6   5   5   9   7   6   5   3   3   8   8   7   6   6   5   5   5   5   4   4   7   6   5   5   4   4   2   2   2   2   1   6   5   5   4   4   3   2   2   1   0   0   0   7   7   5   3   2   1   8   7   7   4   2  
 9   9   8   7   6   6   6   5   5   9   7   6   5   3   3   8   8   7   6   6   5   5   5   5   4   4   7   6   5   5   4   4   2   2   2   2   1   6   5   5   4   4   3   2   2   1   0   0   0   7   7   5   3   2   1   8   7   7   4   2  
 6   6   7   8   9   9   9  10  10   4   6   7   8  10  10   3   3   4   5   5   6   6   6   6   7   7   2   3   4   4   5   5   7   7   7   7   8   1   2   2   3   3   4   5   5   6   7   7   7   0   0   2   4   5   6   1   2   2   5   7  
 6   6   7   8   9   9   9  10  10   4   6   7   8  10  10   3   3   4   5   5   6   6   6   6   7   7   2   3   4   4   5   5   7   7   7   7   8   1   2   2   3   3   4   5   5   6   7   7   7   0   0   2   4   5   6   1   2   2   5   7  
 6   6   5   6   7   7   7   8   8   6   4   5   6   8   8   5   5   4   3   3   4   4   4   4   5   5   4   3   2   2   3   3   5   5   5   5   6   3   2   2   1   1   2   3   3   4   5   5   5   2   2   0   2   3   4   3   2   2   3   5  
 8   8   7   6   5   5   5   6   6   8   6   5   4   6   6   7   7   6   5   5   4   4   4   4   3   3   6   5   4   4   3   3   3   3   3   3   4   5   4   4   3   3   2   1   1   2   3   3   3   4   4   2   0   1   2   5   4   4   1   3  
 9   9   8   7   6   6   6   5   5   9   7   6   5   5   5   8   8   7   6   6   5   5   5   5   4   4   7   6   5   5   4   4   2   2   2   2   3   6   5   5   4   4   3   2   2   1   2   2   2   5   5   3   1   0   1   6   5   5   2   2  
10  10   9   8   7   7   7   6   6  10   8   7   6   4   4   9   9   8   7   7   6   6   6   6   5   5   8   7   6   6   5   5   3   3   3   3   2   7   6   6   5   5   4   3   3   2   1   1   1   6   6   4   2   1   0   7   6   6   3   1  
 7   7   8   9  10  10  10  11  11   5   7   8   9  11  11   4   4   5   6   6   7   7   7   7   8   8   3   4   5   5   6   6   8   8   8   8   9   2   3   3   4   4   5   6   6   7   8   8   8   1   1   3   5   6   7   0   1   1   4   6  
 6   6   7   8   9   9   9  10  10   6   6   7   8  10  10   5   5   4   5   5   6   6   6   6   7   7   4   3   4   4   5   5   7   7   7   7   8   3   2   2   3   3   4   5   5   6   7   7   7   2   2   2   4   5   6   1   0   0   3   5  
 6   6   7   8   9   9   9  10  10   6   6   7   8  10  10   5   5   4   5   5   6   6   6   6   7   7   4   3   4   4   5   5   7   7   7   7   8   3   2   2   3   3   4   5   5   6   7   7   7   2   2   2   4   5   6   1   0   0   3   5  
 9   9   8   7   6   6   6   7   7   9   7   6   5   7   7   8   8   7   6   6   5   5   5   5   4   4   7   6   5   5   4   4   4   4   4   4   5   6   5   5   4   4   3   2   2   3   4   4   4   5   5   3   1   2   3   4   3   3   0   2  
11  11  10   9   8   8   8   7   7  11   9   8   7   5   5  10  10   9   8   8   7   7   7   7   6   6   9   8   7   7   6   6   4   4   4   4   3   8   7   7   6   6   5   4   4   3   2   2   2   7   7   5   3   2   1   6   5   5   2   0  

 0  36  30  30  37  40  39  26  46  24  40  20  36  33  36  36  33  23  37  27  40  33  36  30  33  43  23  39  23  43  17  42  33  33  33  46  27  39  42  45  37  36  26  23  39  23  46  36  46  33  30  33  33  27  33  33  29  26  33  14  
 0   0  27  33  40  40  33  42  44  44  17  26  33  32  16  33  39  43  40  42  40  33  29  33  36  22  30  32  43  44  44  12  30  33  33  23  33  33  20  33  34  33  26  21  33  43  29  39  23  33  33  33  34  38  33  34  42  44  39  47  
 0   0   0  33  33  44  40  33  43  27  33  30  36  33  33  43  39  33  33  29  33  33  36  30  46  30  43  34  36  36  33  16  33  32  23  26  33  32  40  36  24  36  40  33  36  26  39  39  26  34  43  26  33  33  26  33  40  33  46  40  
 0   0   0   0  33  43  33  30  33  34  39  36  33  23  27  37  20  28  30  38  36  33  33  38  30  30  20  28  38  36  40  33  33  33  28  43  33  15  36  41  36  38  33  30  38  46  39  37  18  43  20  33  33  33  30  43  30  36  33  30  
 0   0   0   0   0  26  43  30  21  17  43  38  29  23  45  36  36  28  33  43  27  33  24  38  21  30  32  42  32  23  19  62  33  42  33  44  33  36  41  31  21  28  45  41  44  30  37  40  55  40  25  33  33  23  36  33  36  32  22  31  
 0   0   0   0   0   0  27  28  22  26  40  40  33  43  40  23  43  34  20  50  26  33  40  32  33  33  40  33  27  20  29  50  33  34  43  22  39  38  40  39  20  40  40  46  39  23  32  32  53  22  27  33  33  33  33  22  33  34  33  23  
 0   0   0   0   0   0   0  21  38  44  43  39  33  33  28  38  33  38  27  45  33  33  33  43  31  27  38  22  22  27  45  39  33  18  34  46  44  21  25  38  22  44  21  44  34  40  33  33  28  33  32  40  32  39  40  23  20  23  27  34  
 0   0   0   0   0   0   0   0  33  25  62  42  33  32  43  36  33  22  24  43  33  33  38  34  34  37  30  25  14  27  36  37  34  37  33  43  45  21  37  36  27  38  33  35  42  19  51  37  47  33  24  33  34  40  33  31  16  26  33  33  
 0   0   0   0   0   0   0   0   0  32  33  46  38  33  40  18  33  28  32  39  26  33  26  33  32  27  21  32  39  28  33  48  37  38  43  38  33  33  30  16  37  27  45  38  32  33  33  33  43  33  24  33  33  35  33  38  27  33  33  30  
 0   0   0   0   0   0   0   0   0   0  30  34  24  33  56  32  39  23  26  33  30  33  29  33  39  53  40  43  28  26  17  61  33  41  33  39  27  39  55  39  20  28  40  39  33  19  57  42  52  33  33  33  33  27  33  34  29  19  35  21  
 0   0   0   0   0   0   0   0   0   0   0  29  28  43  28  25  42  43  32  17  30  33  27  28  45  28  36  40  54  36  44  31  33  28  33  34  21  47   9  30  30  22  26  20  27  51  19  36  14  34  42  40  33  37  43  52  45  40  32  46  
 0   0   0   0   0   0   0   0   0   0   0   0  36  33  26  35  33  33  43  27  40  33  36  25  33  39  29  39  39  43  27  32  33  33  33  30  27  39  37  39  37  36  26  34  33  33  30  30  36  33  36  33  33  27  33  33  39  30  33  24  
 0   0   0   0   0   0   0   0   0   0   0   0   0  33  38  38  33  38  33  33  37  33  31  36  38  36  38  32  35  30  33  38  33  32  33  28  27  33  32  35  31  25  28  32  25  33  37  37  35  33  38  33  33  33  33  33  33  35  29  31  
 0   0   0   0   0   0   0   0   0   0   0   0   0   0  33  33  23  33  43  51  33  33  33  34  24  32  23  32  33  33  34  34  34  33  33  43  33  23  33  24  33  33  33  32  42  52  33  33  42  43  23  42  25  24  33  34  32  34  24  23  
 0   0   0   0   0   0   0   0   0   0   0   0   0   0   0  34  33  38  40  38  40  33  33  38  33  23  26  28  43  40  43  11  33  33  28  23  33  28  21  38  40  43  26  31  38  43  23  34  13  33  33  33  33  33  33  28  43  43  33  43  
 0   0   0   0   0   0   0   0   0   0   0   0   0   0   0   0  33  28  36  43  33  33  28  38  28  36  21  38  36  33  33  43  33  38  43  35  33  33  28  25  38  33  38  31  35  33  30  29  43  33  21  33  33  33  33  38  33  30  33  28  
 0   0   0   0   0   0   0   0   0   0   0   0   0   0   0   0   0  33  33  27  36  33  33  33  24  33  23  33  36  36  40  33  33  33  33  40  33  20  36  33  42  33  33  33  30  46  30  27  23  43  23  33  33  33  30  43  30  33  27  30  
 0   0   0   0   0   0   0   0   0   0   0   0   0   0   0   0   0   0  33  37  33  33  27  39  28  43  28  32  28  33  23  43  33  38  28  49  33  28  43  33  38  37  38  33  43  23  44  34  38  33  28  33  33  33  33  39  23  22  33  28  
 0   0   0   0   0   0   0   0   0   0   0   0   0   0   0   0   0   0   0  29  26  33  39  23  43  30  37  33  24  20  49  30  33  33  33  36  39  27  40  42  20  39  40  43  42  33  36  36  23  33  24  33  33  43  33  43  33  36  33  43  
 0   0   0   0   0   0   0   0   0   0   0   0   0   0   0   0   0   0   0   0  33  33  30  28  42  30  39  42  34  35  32  32  38  33  28  34  29  50  35  37  45  21  33  30  13  24  28  28   9  33  49  24  43  34  33  45  38  33  36  43  
 0   0   0   0   0   0   0   0   0   0   0   0   0   0   0   0   0   0   0   0   0  33  37  33  36  33  40  29  30  23  36  40  33  29  33  36  33  36  33  33  23  33  40  36  36  30  26  29  33  33  33  33  33  33  36  33  36  37  37  36  
 0   0   0   0   0   0   0   0   0   0   0   0   0   0   0   0   0   0   0   0   0   0  33  33  33  33  33  33  33  33  33  33  33  33  33  33  33  33  33  33  33  33  33  33  33  33  33  33  33  33  33  33  33  33  33  33  33  33  33  33  
 0   0   0   0   0   0   0   0   0   0   0   0   0   0   0   0   0   0   0   0   0   0   0  47  24  36  32  41  36  40  27  39  29  32  34  50  26  39  41  19  47  23  38  27  29  33  38  38  30  33  34  33  32  37  33  39  33  18  30  45  
 0   0   0   0   0   0   0   0   0   0   0   0   0   0   0   0   0   0   0   0   0   0   0   0  43  30  33  39  31  36  43   4  33  43  38  22  33  38  38  22  30  32  33  38  40  42  32  32  40  33  33  42  24  43  33  42  33  44  24  40  
 0   0   0   0   0   0   0   0   0   0   0   0   0   0   0   0   0   0   0   0   0   0   0   0   0  34  32  39  36  40  19  46  28  38  33  42  33  30  33  28  47  33  31  30  35  43  30  27  43  33  28  40  32  26  37  27  24  32  20  29  
 0   0   0   0   0   0   0   0   0   0   0   0   0   0   0   0   0   0   0   0   0   0   0   0   0   0  30  26  43  36  50  17  34  29  33  30  47  27  17  33  30  36  33  29  39  47  22  36  22  33  30  33  34  40  33  38  36  47  33  42  
 0   0   0   0   0   0   0   0   0   0   0   0   0   0   0   0   0   0   0   0   0   0   0   0   0   0   0  38  30  36  43  40  37  38  43  51  33  23  22  31  45  33  31  27  41  43  36  36  33  43   5  33  33  29  33  48  33  36  33  24  
 0   0   0   0   0   0   0   0   0   0   0   0   0   0   0   0   0   0   0   0   0   0   0   0   0   0   0   0  38  33  40  27  34  25  28  29  39  23  23  37  28  37  28  28  33  33  30  30  28  32  38  33  34  40  33  30  26  37  37  34  
 0   0   0   0   0   0   0   0   0   0   0   0   0   0   0   0   0   0   0   0   0   0   0   0   0   0   0   0   0  21  32  38  33  33  38  49  39  35  45  34  27  36  33  41  37  20  43  36  40  33  24  33  33  33  36  28  26  26  33  29  
 0   0   0   0   0   0   0   0   0   0   0   0   0   0   0   0   0   0   0   0   0   0   0   0   0   0   0   0   0   0  42  44  37  33  33  36  39  30  33  36  20  36  40  50  39  30  30  33  30  33  27  33  33  29  36  33  36  33  33  35  
 0   0   0   0   0   0   0   0   0   0   0   0   0   0   0   0   0   0   0   0   0   0   0   0   0   0   0   0   0   0   0  66  32  33  33  30  21  52  52  33  35  27  33  28  24  16  46  33  70  30  49  33  32  16  30  12  27  22  26   4  
 0   0   0   0   0   0   0   0   0   0   0   0   0   0   0   0   0   0   0   0   0   0   0   0   0   0   0   0   0   0   0   0  29  43  23   6  39  27  26  18  47  38  35  27  42  45  23  33   0  26  43  35  24  53  26  38  44  53  38  71  
 0   0   0   0   0   0   0   0   0   0   0   0   0   0   0   0   0   0   0   0   0   0   0   0   0   0   0   0   0   0   0   0   0  33  33  33  33  33  37  33  33  33  33  30  33  33  33  33  33  33  33  33  32  36  33  32  34  32  33  37  
 0   0   0   0   0   0   0   0   0   0   0   0   0   0   0   0   0   0   0   0   0   0   0   0   0   0   0   0   0   0   0   0   0   0  33  42  33  32  29  38  28  33  28  29  28  37  25  29  29  34  38  33  33  33  33  32  33  27  37  24  
 0   0   0   0   0   0   0   0   0   0   0   0   0   0   0   0   0   0   0   0   0   0   0   0   0   0   0   0   0   0   0   0   0   0   0  32  34  28  33  38  33  38  33  33  38  33  33  33  18  33  43  33  34  33  33  33  33  33  32  43  
 0   0   0   0   0   0   0   0   0   0   0   0   0   0   0   0   0   0   0   0   0   0   0   0   0   0   0   0   0   0   0   0   0   0   0   0  34  40  33  35  31  34  35  36  22  25  26  29  37  23  51  26  34  33  23  13  47  51  39  39  
 0   0   0   0   0   0   0   0   0   0   0   0   0   0   0   0   0   0   0   0   0   0   0   0   0   0   0   0   0   0   0   0   0   0   0   0   0  45  39  33  39  27  33  27  27  33  33  33  33  33  39  33  32  27  33  33  39  39  34  27  
 0   0   0   0   0   0   0   0   0   0   0   0   0   0   0   0   0   0   0   0   0   0   0   0   0   0   0   0   0   0   0   0   0   0   0   0   0   0  30  38  30  44  33  39  41  46  36  33  18  44  17  33  33  39  30  43  24  33  33  36  
 0   0   0   0   0   0   0   0   0   0   0   0   0   0   0   0   0   0   0   0   0   0   0   0   0   0   0   0   0   0   0   0   0   0   0   0   0   0   0  27  37  28  19  16  36  47  16  29  28  33  33  40  33  35  43  38  33  47  30  48  
 0   0   0   0   0   0   0   0   0   0   0   0   0   0   0   0   0   0   0   0   0   0   0   0   0   0   0   0   0   0   0   0   0   0   0   0   0   0   0   0  47  19  38  30  30  42  30  30  44  33  37  42  24  39  33  38  27  30  24  47  
 0   0   0   0   0   0   0   0   0   0   0   0   0   0   0   0   0   0   0   0   0   0   0   0   0   0   0   0   0   0   0   0   0   0   0   0   0   0   0   0   0  42  35  46  40  30  36  39  43  40  32  33  33  33  36  28  36  33  32  28  
 0   0   0   0   0   0   0   0   0   0   0   0   0   0   0   0   0   0   0   0   0   0   0   0   0   0   0   0   0   0   0   0   0   0   0   0   0   0   0   0   0   0  33  22  19  33  34  34  40  33  39  33  33  33  33  39  33  32  33  36  
 0   0   0   0   0   0   0   0   0   0   0   0   0   0   0   0   0   0   0   0   0   0   0   0   0   0   0   0   0   0   0   0   0   0   0   0   0   0   0   0   0   0   0  26  28  40  33  33  33  33  38  40  33  33  40  28  26  33  26  30  
 0   0   0   0   0   0   0   0   0   0   0   0   0   0   0   0   0   0   0   0   0   0   0   0   0   0   0   0   0   0   0   0   0   0   0   0   0   0   0   0   0   0   0   0  30  33  32  32  38  33  36  33  34  38  33  39  32  41  37  37  
 0   0   0   0   0   0   0   0   0   0   0   0   0   0   0   0   0   0   0   0   0   0   0   0   0   0   0   0   0   0   0   0   0   0   0   0   0   0   0   0   0   0   0   0   0  27  33  30  26  33  47  24  42  33  30  28  30  30  42  28  
 0   0   0   0   0   0   0   0   0   0   0   0   0   0   0   0   0   0   0   0   0   0   0   0   0   0   0   0   0   0   0   0   0   0   0   0   0   0   0   0   0   0   0   0   0   0  44  33  48  23  43  17  42  33  29  19  33  23  49  30  
 0   0   0   0   0   0   0   0   0   0   0   0   0   0   0   0   0   0   0   0   0   0   0   0   0   0   0   0   0   0   0   0   0   0   0   0   0   0   0   0   0   0   0   0   0   0   0  19  19  33  36  33  33  33  36  36  46  45  31  42  
 0   0   0   0   0   0   0   0   0   0   0   0   0   0   0   0   0   0   0   0   0   0   0   0   0   0   0   0   0   0   0   0   0   0   0   0   0   0   0   0   0   0   0   0   0   0   0   0  33  33  36  33  33  33  33  32  33  35  31  33  
 0   0   0   0   0   0   0   0   0   0   0   0   0   0   0   0   0   0   0   0   0   0   0   0   0   0   0   0   0   0   0   0   0   0   0   0   0   0   0   0   0   0   0   0   0   0   0   0   0  36  33  24  42  43  33  52  43  43  49  62  
 0   0   0   0   0   0   0   0   0   0   0   0   0   0   0   0   0   0   0   0   0   0   0   0   0   0   0   0   0   0   0   0   0   0   0   0   0   0   0   0   0   0   0   0   0   0   0   0   0   0  43  33  33  33  33  23  33  33  40  33  
 0   0   0   0   0   0   0   0   0   0   0   0   0   0   0   0   0   0   0   0   0   0   0   0   0   0   0   0   0   0   0   0   0   0   0   0   0   0   0   0   0   0   0   0   0   0   0   0   0   0   0  33  33  33  33  48  33  36  33  28  
 0   0   0   0   0   0   0   0   0   0   0   0   0   0   0   0   0   0   0   0   0   0   0   0   0   0   0   0   0   0   0   0   0   0   0   0   0   0   0   0   0   0   0   0   0   0   0   0   0   0   0   0  42  33  26  33  40  33  49  33  
 0   0   0   0   0   0   0   0   0   0   0   0   0   0   0   0   0   0   0   0   0   0   0   0   0   0   0   0   0   0   0   0   0   0   0   0   0   0   0   0   0   0   0   0   0   0   0   0   0   0   0   0   0  32  33  32  34  32  25  33  
 0   0   0   0   0   0   0   0   0   0   0   0   0   0   0   0   0   0   0   0   0   0   0   0   0   0   0   0   0   0   0   0   0   0   0   0   0   0   0   0   0   0   0   0   0   0   0   0   0   0   0   0   0   0  33  22  40  32  33  13  
 0   0   0   0   0   0   0   0   0   0   0   0   0   0   0   0   0   0   0   0   0   0   0   0   0   0   0   0   0   0   0   0   0   0   0   0   0   0   0   0   0   0   0   0   0   0   0   0   0   0   0   0   0   0   0  33  37  33  40  30  
 0   0   0   0   0   0   0   0   0   0   0   0   0   0   0   0   0   0   0   0   0   0   0   0   0   0   0   0   0   0   0   0   0   0   0   0   0   0   0   0   0   0   0   0   0   0   0   0   0   0   0   0   0   0   0   0  34  33  33  22  
 0   0   0   0   0   0   0   0   0   0   0   0   0   0   0   0   0   0   0   0   0   0   0   0   0   0   0   0   0   0   0   0   0   0   0   0   0   0   0   0   0   0   0   0   0   0   0   0   0   0   0   0   0   0   0   0   0  24  26  26  
 0   0   0   0   0   0   0   0   0   0   0   0   0   0   0   0   0   0   0   0   0   0   0   0   0   0   0   0   0   0   0   0   0   0   0   0   0   0   0   0   0   0   0   0   0   0   0   0   0   0   0   0   0   0   0   0   0   0  29  23  
 0   0   0   0   0   0   0   0   0   0   0   0   0   0   0   0   0   0   0   0   0   0   0   0   0   0   0   0   0   0   0   0   0   0   0   0   0   0   0   0   0   0   0   0   0   0   0   0   0   0   0   0   0   0   0   0   0   0   0  33  
 0   0   0   0   0   0   0   0   0   0   0   0   0   0   0   0   0   0   0   0   0   0   0   0   0   0   0   0   0   0   0   0   0   0   0   0   0   0   0   0   0   0   0   0   0   0   0   0   0   0   0   0   0   0   0   0   0   0   0   0  
